certificates/rado_a14_c114_N28.cnf
c Rad2 upper bound instance: x1 + 14*x2 - x3 = 114, interval [1,28]
p cnf 28 112
1 9 13 0
-1 -9 -13 0
1 10 27 0
-1 -10 -27 0
2 9 14 0
-2 -9 -14 0
2 10 28 0
-2 -10 -28 0
1 3 8 0
-1 -3 -8 0
3 9 15 0
-3 -9 -15 0
2 4 8 0
-2 -4 -8 0
4 9 16 0
-4 -9 -16 0
3 5 8 0
-3 -5 -8 0
5 9 17 0
-5 -9 -17 0
4 6 8 0
-4 -6 -8 0
6 9 18 0
-6 -9 -18 0
5 7 8 0
-5 -7 -8 0
7 9 19 0
-7 -9 -19 0
6 8 0
-6 -8 0
8 9 20 0
-8 -9 -20 0
7 8 9 0
-7 -8 -9 0
9 21 0
-9 -21 0
8 10 0
-8 -10 0
9 10 22 0
-9 -10 -22 0
8 9 11 0
-8 -9 -11 0
9 11 23 0
-9 -11 -23 0
8 10 12 0
-8 -10 -12 0
9 12 24 0
-9 -12 -24 0
8 11 13 0
-8 -11 -13 0
9 13 25 0
-9 -13 -25 0
8 12 14 0
-8 -12 -14 0
9 14 26 0
-9 -14 -26 0
8 13 15 0
-8 -13 -15 0
9 15 27 0
-9 -15 -27 0
8 14 16 0
-8 -14 -16 0
9 16 28 0
-9 -16 -28 0
1 7 17 0
-1 -7 -17 0
8 15 17 0
-8 -15 -17 0
2 7 18 0
-2 -7 -18 0
8 16 18 0
-8 -16 -18 0
3 7 19 0
-3 -7 -19 0
8 17 19 0
-8 -17 -19 0
4 7 20 0
-4 -7 -20 0
8 18 20 0
-8 -18 -20 0
5 7 21 0
-5 -7 -21 0
8 19 21 0
-8 -19 -21 0
6 7 22 0
-6 -7 -22 0
8 20 22 0
-8 -20 -22 0
7 23 0
-7 -23 0
8 21 23 0
-8 -21 -23 0
7 8 24 0
-7 -8 -24 0
8 22 24 0
-8 -22 -24 0
7 9 25 0
-7 -9 -25 0
8 23 25 0
-8 -23 -25 0
7 10 26 0
-7 -10 -26 0
8 24 26 0
-8 -24 -26 0
7 11 27 0
-7 -11 -27 0
8 25 27 0
-8 -25 -27 0
7 12 28 0
-7 -12 -28 0
8 26 28 0
-8 -26 -28 0
