certificates/rado_a14_c114_N28.drat
-26 -27 -28 0
-9 8 -28 0
-10 -28 0
d -10 -2 -28 0
-27 -28 0
d -26 -27 -28 0
-28 0
9 -8 0
-2 -8 0
d -4 -2 -8 0
10 0
-8 0
6 0
26 0
-7 0
5 0
9 0
23 0
24 0
12 0
-17 0
-21 0
-18 0
-22 0
-14 0
-11 0
0
